(set-info :smt-lib-version 2.6)
(set-logic QF_SLIA)
(set-info :source |
Generated by: Dmitry Blotsky1, Federico Mora, Murphy Berzish, Yunhui Zheng, Ifaz Kabir, Vijay Ganesh, Zhengyang Lu
Generated on: 2018-01-24
Generator: StringFuzz
Application: Evaluate string solvers
Target solver: Z3str3, CVC4, Z3str2, Norn
Publications: Blotsky, D., Mora, F., Berzish, M., Zheng, Y., Kabir, I., & Ganesh, V. (2018). Stringfuzz: A fuzzer for string solvers. In CAV 2018.
Description: new instance generated by StringFuzz, a modular string and regex fuzzer
|)
(set-info :license "https://creativecommons.org/licenses/by/4.0/")
(set-info :category "random")
(set-info :status unknown)

(declare-fun var0 () String)
(assert (str.in_re var0 (re.++ (re.+ (re.+ (str.to_re "00"))) (re.++ (re.+ (re.union (str.to_re "111") (str.to_re "2"))) (re.++ (re.union (re.+ (str.to_re "333")) (re.* (str.to_re "444"))) (re.++ (re.* (re.union (str.to_re "555") (str.to_re "66"))) (re.++ (re.* (re.union (str.to_re "7") (str.to_re "88"))) (re.++ (re.+ (re.+ (str.to_re "999"))) (re.++ (re.* (re.+ (str.to_re "a"))) (re.++ (re.union (re.+ (str.to_re "b")) (re.* (str.to_re "c"))) (re.++ (re.union (re.union (str.to_re "ddd") (str.to_re "eee")) (re.union (str.to_re "f") (str.to_re "gg"))) (re.++ (re.+ (re.union (str.to_re "h") (str.to_re "i"))) (re.++ (re.union (re.union (str.to_re "j") (str.to_re "kkk")) (re.union (str.to_re "lll") (str.to_re "mmm"))) (re.++ (re.+ (re.union (str.to_re "nn") (str.to_re "ooo"))) (re.++ (re.* (re.+ (str.to_re "ppp"))) (re.++ (re.* (re.+ (str.to_re "q"))) (re.++ (re.union (re.* (str.to_re "r")) (re.* (str.to_re "ss"))) (re.++ (re.union (re.union (str.to_re "tt") (str.to_re "u")) (re.union (str.to_re "vvv") (str.to_re "www"))) (re.++ (re.union (re.union (str.to_re "xxx") (str.to_re "yyy")) (re.union (str.to_re "z") (str.to_re "AA"))) (re.++ (re.* (re.+ (str.to_re "B"))) (re.++ (re.union (re.union (str.to_re "CCC") (str.to_re "D")) (re.+ (str.to_re "EE"))) (re.++ (re.union (re.+ (str.to_re "FFF")) (re.union (str.to_re "GGG") (str.to_re "HH"))) (re.++ (re.+ (re.* (str.to_re "I"))) (re.++ (re.* (re.union (str.to_re "JJ") (str.to_re "K"))) (re.++ (re.union (re.union (str.to_re "L") (str.to_re "MM")) (re.* (str.to_re "NNN"))) (re.++ (re.+ (re.+ (str.to_re "OOO"))) (re.+ (re.+ (str.to_re "PP")))))))))))))))))))))))))))))
(check-sat)
(exit)
